NAME          BLANK   
ROWS
 N  OBJROW
 E  R0000000
COLUMNS
    C0000000  OBJROW    26.            R0000000  97.         
    C0000001  OBJROW    2.             R0000000   -83.       
    C0000002  OBJROW    2.             R0000000   -91.       
    C0000003  OBJROW    4.             R0000000  11.         
    C0000004  OBJROW    1.             R0000000   -41.       
    C0000005  OBJROW    6.             R0000000  16.         
    C0000006  OBJROW    1.             R0000000   -47.       
    C0000007  OBJROW    1.             R0000000   -48.       
    C0000008  OBJROW    8.             R0000000   -83.       
    C0000009  OBJROW    8.             R0000000  12.         
    C0000010  OBJROW    11.            R0000000  65.         
    C0000011  OBJROW    1.             R0000000   -41.       
    C0000012  OBJROW    1.             R0000000   -44.       
    C0000013  OBJROW    14.            R0000000  32.         
    C0000014  OBJROW    15.            R0000000   -44.       
    C0000015  OBJROW    17.            R0000000  86.         
    C0000016  OBJROW    18.            R0000000   -74.       
    C0000017  OBJROW    19.            R0000000  99.         
    C0000018  OBJROW    2.             R0000000   -95.       
    C0000019  OBJROW    2.             R0000000   -97.       
    C0000020  OBJROW    21.            R0000000  99.         
    C0000021  OBJROW    2.             R0000000   -90.       
    C0000022  OBJROW    1.             R0000000   -46.       
    C0000023  OBJROW    23.            R0000000  42.         
    C0000024  OBJROW    23.            R0000000   -82.       
    C0000025  OBJROW    24.            R0000000   -54.       
    C0000026  OBJROW    1.             R0000000   -40.       
    C0000027  OBJROW    2.             R0000000  11.         
    C0000028  OBJROW    1.             R0000000  7.          
    C0000029  OBJROW    28.            R0000000   -90.       
    C0000030  OBJROW    29.            R0000000  99.         
    C0000031  OBJROW    2.             R0000000   -84.       
    C0000032  OBJROW    16.            R0000000  71.         
    C0000033  OBJROW    31.            R0000000  85.         
    C0000034  OBJROW    1.             R0000000   -44.       
    C0000035  OBJROW    31.            R0000000   -73.       
    C0000036  OBJROW    34.            R0000000  21.         
    C0000037  OBJROW    1.             R0000000   -44.       
    C0000038  OBJROW    13.            R0000000  54.         
    C0000039  OBJROW    38.            R0000000  40.         
    C0000040  OBJROW    42.            R0000000  56.         
    C0000041  OBJROW    5.             R0000000  29.         
    C0000042  OBJROW    9.             R0000000  47.         
    C0000043  OBJROW    43.            R0000000  20.         
    C0000044  OBJROW    11.            R0000000  45.         
    C0000045  OBJROW    1.             R0000000   -40.       
    C0000046  OBJROW    1.             R0000000   -47.       
    C0000047  OBJROW    1.             R0000000   -45.       
    C0000048  OBJROW    2.             R0000000   -83.       
    C0000049  OBJROW    49.            R0000000  86.         
    C0000050  OBJROW    49.            R0000000   -97.       
    C0000051  OBJROW    10.            R0000000  56.         
    C0000052  OBJROW    2.             R0000000   -83.       
    C0000053  OBJROW    57.            R0000000   -96.       
    C0000054  OBJROW    1.             R0000000   -40.       
    C0000055  OBJROW    2.             R0000000  10.         
    C0000056  OBJROW    57.            R0000000  63.         
    C0000057  OBJROW    2.             R0000000  9.          
    C0000058  OBJROW    57.            R0000000   -71.       
    C0000059  OBJROW    61.            R0000000   -85.       
    C0000060  OBJROW    61.            R0000000  34.         
    C0000061  OBJROW    5.             R0000000  23.         
    C0000062  OBJROW    1.             R0000000   -40.       
    C0000063  OBJROW    66.            R0000000  31.         
    C0000064  OBJROW    67.            R0000000  33.         
    C0000065  OBJROW    1.             R0000000   -43.       
    C0000066  OBJROW    68.            R0000000  85.         
    C0000067  OBJROW    68.            R0000000  65.         
    C0000068  OBJROW    1.             R0000000   -48.       
    C0000069  OBJROW    1.             R0000000   -45.       
    C0000070  OBJROW    71.            R0000000  91.         
    C0000071  OBJROW    5.             R0000000  20.         
    C0000072  OBJROW    75.            R0000000  27.         
    C0000073  OBJROW    1.             R0000000   -46.       
    C0000074  OBJROW    2.             R0000000  11.         
    C0000075  OBJROW    1.             R0000000   -40.       
    C0000076  OBJROW    81.            R0000000   -81.       
    C0000077  OBJROW    82.            R0000000  66.         
    C0000078  OBJROW    82.            R0000000  85.         
    C0000079  OBJROW    82.            R0000000   -85.       
    C0000080  OBJROW    2.             R0000000  12.         
    C0000081  OBJROW    1.             R0000000   -45.       
    C0000082  OBJROW    84.            R0000000  93.         
    C0000083  OBJROW    1.             R0000000   -40.       
    C0000084  OBJROW    86.            R0000000   -40.       
    C0000085  OBJROW    87.            R0000000  95.         
    C0000086  OBJROW    3.             R0000000  13.         
    C0000087  OBJROW    1.             R0000000   -42.       
    C0000088  OBJROW    89.            R0000000   -53.       
    C0000089  OBJROW    90.            R0000000  34.         
    C0000090  OBJROW    1.             R0000000   -43.       
    C0000091  OBJROW    93.            R0000000   -52.       
    C0000092  OBJROW    93.            R0000000   -92.       
    C0000093  OBJROW    1.             R0000000   -47.       
    C0000094  OBJROW    98.            R0000000   -84.       
    C0000095  OBJROW    1.             R0000000  7.          
    C0000096  OBJROW    98.            R0000000   -86.       
    C0000097  OBJROW    1.             R0000000   -46.       
    C0000098  OBJROW    1.             R0000000   -42.       
    C0000099  OBJROW    98.            R0000000  68.         
RHS
    RHS       R0000000   -3344.     
BOUNDS
 UI BOUND     C0000001         1e+30
 UI BOUND     C0000002         1e+30
 UI BOUND     C0000003         1e+30
 UI BOUND     C0000004         1e+30
 UI BOUND     C0000005         1e+30
 UI BOUND     C0000006         1e+30
 UI BOUND     C0000007         1e+30
 UI BOUND     C0000008         1e+30
 UI BOUND     C0000009         1e+30
 UI BOUND     C0000010         1e+30
 UI BOUND     C0000011         1e+30
 UI BOUND     C0000012         1e+30
 UI BOUND     C0000013         1e+30
 UI BOUND     C0000014         1e+30
 UI BOUND     C0000015         1e+30
 UI BOUND     C0000016         1e+30
 UI BOUND     C0000017         1e+30
 UI BOUND     C0000018         1e+30
 UI BOUND     C0000019         1e+30
 UI BOUND     C0000020         1e+30
 UI BOUND     C0000021         1e+30
 UI BOUND     C0000022         1e+30
 UI BOUND     C0000023         1e+30
 UI BOUND     C0000024         1e+30
 UI BOUND     C0000025         1e+30
 UI BOUND     C0000026         1e+30
 UI BOUND     C0000027         1e+30
 UI BOUND     C0000028         1e+30
 UI BOUND     C0000029         1e+30
 UI BOUND     C0000030         1e+30
 UI BOUND     C0000031         1e+30
 UI BOUND     C0000032         1e+30
 UI BOUND     C0000033         1e+30
 UI BOUND     C0000034         1e+30
 UI BOUND     C0000035         1e+30
 UI BOUND     C0000036         1e+30
 UI BOUND     C0000037         1e+30
 UI BOUND     C0000038         1e+30
 UI BOUND     C0000039         1e+30
 UI BOUND     C0000040         1e+30
 UI BOUND     C0000041         1e+30
 UI BOUND     C0000042         1e+30
 UI BOUND     C0000043         1e+30
 UI BOUND     C0000044         1e+30
 UI BOUND     C0000045         1e+30
 UI BOUND     C0000046         1e+30
 UI BOUND     C0000047         1e+30
 UI BOUND     C0000048         1e+30
 UI BOUND     C0000049         1e+30
 UI BOUND     C0000050         1e+30
 UI BOUND     C0000051         1e+30
 UI BOUND     C0000052         1e+30
 UI BOUND     C0000053         1e+30
 UI BOUND     C0000054         1e+30
 UI BOUND     C0000055         1e+30
 UI BOUND     C0000056         1e+30
 UI BOUND     C0000057         1e+30
 UI BOUND     C0000058         1e+30
 UI BOUND     C0000059         1e+30
 UI BOUND     C0000060         1e+30
 UI BOUND     C0000061         1e+30
 UI BOUND     C0000062         1e+30
 UI BOUND     C0000063         1e+30
 UI BOUND     C0000064         1e+30
 UI BOUND     C0000065         1e+30
 UI BOUND     C0000066         1e+30
 UI BOUND     C0000067         1e+30
 UI BOUND     C0000068         1e+30
 UI BOUND     C0000069         1e+30
 UI BOUND     C0000070         1e+30
 UI BOUND     C0000071         1e+30
 UI BOUND     C0000072         1e+30
 UI BOUND     C0000073         1e+30
 UI BOUND     C0000074         1e+30
 UI BOUND     C0000075         1e+30
 UI BOUND     C0000076         1e+30
 UI BOUND     C0000077         1e+30
 UI BOUND     C0000078         1e+30
 UI BOUND     C0000079         1e+30
 UI BOUND     C0000080         1e+30
 UI BOUND     C0000081         1e+30
 UI BOUND     C0000082         1e+30
 UI BOUND     C0000083         1e+30
 UI BOUND     C0000084         1e+30
 UI BOUND     C0000085         1e+30
 UI BOUND     C0000086         1e+30
 UI BOUND     C0000087         1e+30
 UI BOUND     C0000088         1e+30
 UI BOUND     C0000089         1e+30
 UI BOUND     C0000090         1e+30
 UI BOUND     C0000091         1e+30
 UI BOUND     C0000092         1e+30
 UI BOUND     C0000093         1e+30
 UI BOUND     C0000094         1e+30
 UI BOUND     C0000095         1e+30
 UI BOUND     C0000096         1e+30
 UI BOUND     C0000097         1e+30
 UI BOUND     C0000098         1e+30
 UI BOUND     C0000099         1e+30
ENDATA
